
Gurobi 9.5.1 (linux64, Java) logging started sex 25 fev 2022 14:36:15

Set parameter Username
Academic license - for non-commercial use only - expires 2023-02-16
Set parameter Threads to value 1
Set parameter TimeLimit to value 3600
Set parameter NodefileStart to value 4
Set parameter Cutoff to value 1e+100
Set parameter LazyConstraints to value 1
Gurobi Optimizer version 9.5.1 build v9.5.1rc2 (linux64)
Thread count: 4 physical cores, 8 logical processors, using up to 1 threads
Optimize a model with 5 rows, 10 columns and 10 nonzeros
Model fingerprint: 0x54e5375f
Model has 20 quadratic objective terms
Variable types: 0 continuous, 10 integer (10 binary)
Coefficient statistics:
  Matrix range     [1e+00, 1e+00]
  Objective range  [0e+00, 0e+00]
  QObjective range [2e+00, 4e+00]
  Bounds range     [1e+00, 1e+00]
  RHS range        [1e+00, 1e+00]
Presolve removed 5 rows and 5 columns
Presolve time: 0.00s
Presolved: 6 rows, 11 columns, 18 nonzeros
Variable types: 0 continuous, 11 integer (11 binary)
Found heuristic solution: objective 10.0000000

Root relaxation: objective 4.000000e+00, 5 iterations, 0.00 seconds (0.00 work units)

    Nodes    |    Current Node    |     Objective Bounds      |     Work
 Expl Unexpl |  Obj  Depth IntInf | Incumbent    BestBd   Gap | It/Node Time

     0     0    4.00000    0    4   10.00000    4.00000  60.0%     -    0s
     0     0    8.00000    0    2   10.00000    8.00000  20.0%     -    0s
     0     0    8.00000    0    2   10.00000    8.00000  20.0%     -    0s
     0     0    8.00000    0    2   10.00000    8.00000  20.0%     -    0s
     0     2    8.00000    0    2   10.00000    8.00000  20.0%     -    0s

Cutting planes:
  Gomory: 5
  MIR: 3
  Flow cover: 2
  Zero half: 1
  RLT: 2
  Lazy constraints: 2

Explored 7 nodes (41 simplex iterations) in 0.02 seconds (0.00 work units)
Thread count was 1 (of 8 available processors)

Solution count 1: 10 

Optimal solution found (tolerance 1.00e-04)
Best objective 1.000000000000e+01, best bound 1.000000000000e+01, gap 0.0000%

User-callback calls 224, time in user-callback 0.01 sec

Gurobi 9.5.1 (linux64, Java) logging started sex 25 fev 2022 14:37:54

Set parameter Username
Academic license - for non-commercial use only - expires 2023-02-16
Set parameter Threads to value 1
Set parameter TimeLimit to value 3600
Set parameter NodefileStart to value 4
Set parameter Cutoff to value 1e+100
Set parameter LazyConstraints to value 1
Gurobi Optimizer version 9.5.1 build v9.5.1rc2 (linux64)
Thread count: 4 physical cores, 8 logical processors, using up to 1 threads
Optimize a model with 5 rows, 10 columns and 10 nonzeros
Model fingerprint: 0x54e5375f
Model has 20 quadratic objective terms
Variable types: 0 continuous, 10 integer (10 binary)
Coefficient statistics:
  Matrix range     [1e+00, 1e+00]
  Objective range  [0e+00, 0e+00]
  QObjective range [2e+00, 4e+00]
  Bounds range     [1e+00, 1e+00]
  RHS range        [1e+00, 1e+00]
Presolve removed 5 rows and 5 columns
Presolve time: 0.00s
Presolved: 6 rows, 11 columns, 18 nonzeros
Variable types: 0 continuous, 11 integer (11 binary)
Found heuristic solution: objective 10.0000000
Found heuristic solution: objective 8.0000000

Root relaxation: objective 4.000000e+00, 5 iterations, 0.00 seconds (0.00 work units)

    Nodes    |    Current Node    |     Objective Bounds      |     Work
 Expl Unexpl |  Obj  Depth IntInf | Incumbent    BestBd   Gap | It/Node Time

     0     0    4.00000    0    4    8.00000    4.00000  50.0%     -    0s
     0     0     cutoff    0         8.00000    8.00000  0.00%     -    0s

Cutting planes:
  Gomory: 1
  Clique: 6

Explored 1 nodes (7 simplex iterations) in 0.00 seconds (0.00 work units)
Thread count was 1 (of 8 available processors)

Solution count 2: 8 10 

Optimal solution found (tolerance 1.00e-04)
Best objective 8.000000000000e+00, best bound 8.000000000000e+00, gap 0.0000%

Gurobi 9.5.1 (linux64, Java) logging started sex 25 fev 2022 14:38:26

Set parameter Username
Academic license - for non-commercial use only - expires 2023-02-16
Set parameter Threads to value 1
Set parameter TimeLimit to value 3600
Set parameter NodefileStart to value 4
Set parameter Cutoff to value 1e+100
Set parameter LazyConstraints to value 1
Gurobi Optimizer version 9.5.1 build v9.5.1rc2 (linux64)
Thread count: 4 physical cores, 8 logical processors, using up to 1 threads
Optimize a model with 5 rows, 10 columns and 10 nonzeros
Model fingerprint: 0x54e5375f
Model has 20 quadratic objective terms
Variable types: 0 continuous, 10 integer (10 binary)
Coefficient statistics:
  Matrix range     [1e+00, 1e+00]
  Objective range  [0e+00, 0e+00]
  QObjective range [2e+00, 4e+00]
  Bounds range     [1e+00, 1e+00]
  RHS range        [1e+00, 1e+00]
Presolve removed 5 rows and 5 columns
Presolve time: 0.00s
Presolved: 6 rows, 11 columns, 18 nonzeros
Variable types: 0 continuous, 11 integer (11 binary)
Found heuristic solution: objective 10.0000000

Root relaxation: objective 4.000000e+00, 5 iterations, 0.00 seconds (0.00 work units)

    Nodes    |    Current Node    |     Objective Bounds      |     Work
 Expl Unexpl |  Obj  Depth IntInf | Incumbent    BestBd   Gap | It/Node Time

     0     0    4.00000    0    4   10.00000    4.00000  60.0%     -    0s
     0     0    8.00000    0    2   10.00000    8.00000  20.0%     -    0s
     0     0    8.00000    0    2   10.00000    8.00000  20.0%     -    0s
     0     0    8.00000    0    2   10.00000    8.00000  20.0%     -    0s
     0     2    8.00000    0    2   10.00000    8.00000  20.0%     -    0s

Cutting planes:
  Gomory: 5
  MIR: 3
  Flow cover: 2
  Zero half: 1
  RLT: 2
  Lazy constraints: 2

Explored 7 nodes (41 simplex iterations) in 0.01 seconds (0.00 work units)
Thread count was 1 (of 8 available processors)

Solution count 1: 10 

Optimal solution found (tolerance 1.00e-04)
Best objective 1.000000000000e+01, best bound 1.000000000000e+01, gap 0.0000%

User-callback calls 223, time in user-callback 0.00 sec

Gurobi 9.5.1 (linux64, Java) logging started sex 25 fev 2022 15:47:54

Set parameter Username
Academic license - for non-commercial use only - expires 2023-02-16
Set parameter Threads to value 1
Set parameter TimeLimit to value 3600
Set parameter NodefileStart to value 4
Set parameter Cutoff to value 1e+100
Set parameter LazyConstraints to value 1
Gurobi Optimizer version 9.5.1 build v9.5.1rc2 (linux64)
Thread count: 4 physical cores, 8 logical processors, using up to 1 threads
Optimize a model with 5 rows, 10 columns and 10 nonzeros
Model fingerprint: 0x54e5375f
Model has 20 quadratic objective terms
Variable types: 0 continuous, 10 integer (10 binary)
Coefficient statistics:
  Matrix range     [1e+00, 1e+00]
  Objective range  [0e+00, 0e+00]
  QObjective range [2e+00, 4e+00]
  Bounds range     [1e+00, 1e+00]
  RHS range        [1e+00, 1e+00]
Presolve removed 5 rows and 5 columns
Presolve time: 0.00s
Presolved: 6 rows, 11 columns, 18 nonzeros
Variable types: 0 continuous, 11 integer (11 binary)
Found heuristic solution: objective 10.0000000

Root relaxation: objective 4.000000e+00, 5 iterations, 0.00 seconds (0.00 work units)

    Nodes    |    Current Node    |     Objective Bounds      |     Work
 Expl Unexpl |  Obj  Depth IntInf | Incumbent    BestBd   Gap | It/Node Time

     0     0    4.00000    0    4   10.00000    4.00000  60.0%     -    0s
     0     0    8.00000    0    2   10.00000    8.00000  20.0%     -    0s
     0     0    8.00000    0    2   10.00000    8.00000  20.0%     -    0s
     0     0    8.00000    0    2   10.00000    8.00000  20.0%     -    0s
     0     2    8.00000    0    2   10.00000    8.00000  20.0%     -    0s

Cutting planes:
  Gomory: 5
  MIR: 3
  Flow cover: 2
  Zero half: 1
  RLT: 2
  Lazy constraints: 2

Explored 7 nodes (41 simplex iterations) in 0.01 seconds (0.00 work units)
Thread count was 1 (of 8 available processors)

Solution count 1: 10 

Optimal solution found (tolerance 1.00e-04)
Best objective 1.000000000000e+01, best bound 1.000000000000e+01, gap 0.0000%

User-callback calls 224, time in user-callback 0.00 sec
